
Gurobi 6.0.4 (win64) logging started 06/18/15 16:10:53

Read LP format model from file C:\MT\repository\VRPTWMS\instances\mip\freight\N8-C_DV10-C_SV50_F18_1_No_1.lp
Reading time = 0.01 seconds
(null): 353 rows, 217 columns, 1467 nonzeros
Optimize a model with 353 rows, 217 columns and 1467 nonzeros
Model has 648 quadratic constraints
Coefficient statistics:
  Matrix range    [1e+00, 1e+06]
  Objective range [2e+04, 1e+07]
  Bounds range    [1e+00, 1e+06]
  RHS range       [1e+00, 1e+06]
Presolve removed 64 rows and 25 columns
Presolve time: 0.04s
Presolved: 1649 rows, 904 columns, 7610 nonzeros
Variable types: 648 continuous, 256 integer (204 binary)
Found heuristic solution: objective 8.332000e+07

Root relaxation: objective 7.749286e+06, 158 iterations, 0.01 seconds

    Nodes    |    Current Node    |     Objective Bounds      |     Work
 Expl Unexpl |  Obj  Depth IntInf | Incumbent    BestBd   Gap | It/Node Time

     0     0 7749285.98    0   64 8.3320e+07 7749285.98  90.7%     -    0s
H    0     0                    6.315320e+07 7749285.98  87.7%     -    0s
H    0     0                    5.288120e+07 7749285.98  85.3%     -    0s
     0     0 1.1552e+07    0   73 5.2881e+07 1.1552e+07  78.2%     -    0s
     0     0 1.1610e+07    0   54 5.2881e+07 1.1610e+07  78.0%     -    0s
H    0     0                    4.267570e+07 1.1610e+07  72.8%     -    0s
     0     0 1.1622e+07    0   58 4.2676e+07 1.1622e+07  72.8%     -    0s
     0     0 1.1737e+07    0   56 4.2676e+07 1.1737e+07  72.5%     -    0s
     0     0 1.1788e+07    0   84 4.2676e+07 1.1788e+07  72.4%     -    0s
     0     0 1.1804e+07    0   54 4.2676e+07 1.1804e+07  72.3%     -    0s
     0     0 1.1804e+07    0   55 4.2676e+07 1.1804e+07  72.3%     -    0s
     0     0 1.1804e+07    0   53 4.2676e+07 1.1804e+07  72.3%     -    0s
     0     0 1.1804e+07    0   51 4.2676e+07 1.1804e+07  72.3%     -    0s
     0     0 1.1804e+07    0   51 4.2676e+07 1.1804e+07  72.3%     -    0s
     0     0 1.1804e+07    0   46 4.2676e+07 1.1804e+07  72.3%     -    0s
H    0     0                    4.229420e+07 1.1804e+07  72.1%     -    0s
     0     2 1.1804e+07    0   45 4.2294e+07 1.1804e+07  72.1%     -    0s
*  671   345              26    3.304980e+07 1.5613e+07  52.8%  40.0    1s
H  973   395                    3.268820e+07 1.5837e+07  51.6%  39.0    1s
* 1893   526              31    3.247880e+07 2.2097e+07  32.0%  10.9    3s
* 2108   486              26    3.242980e+07 2.2135e+07  31.7%  16.8    4s
* 2116   460              27    3.242810e+07 2.2135e+07  31.7%  17.0    4s
* 2121   437              27    3.237390e+07 2.2135e+07  31.6%  16.9    4s
  2426   396 infeasible   17      3.2374e+07 2.2173e+07  31.5%  24.1    5s

Cutting planes:
  Gomory: 6
  Implied bound: 14
  Clique: 2
  MIR: 7
  Flow cover: 6
  GUB cover: 7
  Zero half: 12

Explored 4179 nodes (275959 simplex iterations) in 9.82 seconds
Thread count was 2 (of 4 available processors)

Optimal solution found (tolerance 1.00e-04)
Best objective 3.237390000000e+07, best bound 3.237390000000e+07, gap 0.0%
k_c1	100000.0
k_c2	59999.999999999985
k_c3	100000.0
k_c4	0.0
k_c5	40000.0
k_c6	70000.00000000003
k_c7	0.0
k_c8	20000.0
k_dN	-0.0
kDash_c1	70000.0
kDash_c2	0.0
kDash_c3	60000.0
kDash_c4	30000.0
kDash_c5	-0.0
kDash_c6	40000.00000000003
kDash_c7	-0.0
kDash_c8	-0.0
o_1	0.0
o_2	-0.0
o_3	0.0
o_4	1.0
o_5	-0.0
o_6	-0.0
o_7	1.0
o_8	0.0
p_1	0.0
p_2	0.0
p_3	0.0
p_4	1.0
p_5	0.0
p_6	0.0
p_7	1.0
p_8	0.0
phi_c1	161984.0000000001
phi_c2	18237.00000000005
phi_c3	157936.0
phi_c4	35041.99999999995
phi_c5	36379.99999999995
phi_c6	153956.00000000003
phi_c7	2837.000000000051
phi_c8	16845.00000000007
phi_d0	180000.0
phi_dN	-0.0
pi_c1	440000.0
pi_c2	400000.0
pi_c3	340000.0
pi_c4	500000.0
pi_c5	400000.0
pi_c6	360000.0
pi_c7	400000.0
pi_c8	420000.0
pi_dN	-0.0
tauD_c1	89999.99999999996
tauD_c2	482450.0
tauD_c3	332325.0
tauD_c4	495000.0
tauD_c5	450000.0
tauD_c6	200000.0
tauD_c7	620000.0
tauD_c8	809050.0
tauD_d0	-0.0
tauD_dN	1000000.0
tauS_c1	56225.0
tauS_c2	28575.0
tauS_c3	837550.0
tauS_c4	495000.0
tauS_c5	885174.9999999999
tauS_c6	32750.0
tauS_c7	600000.0
tauS_c8	857050.0
tauS_d0	-0.0
tauS_dN	899400.0
x_c1_c6	1.0
x_c2_c7	1.0
x_c3_c2	1.0
x_c4_c8	1.0
x_c5_c4	1.0
x_c6_c5	1.0
x_c7_dN	1.0
x_c8_dN	1.0
x_d0_c1	1.0
x_d0_c3	1.0
z_c4_c7	1.0
z_c7_dN	1.0
z_d0_c4	1.0
